 vasp.5.4.1 05Feb16 (build Jul 14 2017 16:50:04) complex

 executed on           IFC91_ompi date 2020.04.27  14:28:46

 INCAR:
 POTCAR:   PAW_PBE Cs_sv 08Apr2002
 POTCAR:   PAW_PBE Ag 06Sep2000
 POTCAR:   PAW_PBE Fe_sv_h 08Apr2002
 POTCAR:    PAW_PBE Cl 17Jan2003

 POTCAR:   PAW_PBE Cs_sv 08Apr2002
   VRHFIN =Cs: 5s5p6s

   TITEL  = PAW_PBE Cs_sv 08Apr2002
   POMASS =  132.900; ZVAL   =    9.000    mass and valenz
   ENMAX  =  220.318; ENMIN  =  165.238 eV
   QCUT   =   -4.024; QGAM   =    8.048    optimization parameters

   Description
     l     E      TYP  RCUT    TYP  RCUT
     0   .000     23  1.900
     0   .000     23  1.900
     0   .000     23  1.900
     0   .000     23  1.900
     1   .000     23  2.500
     1  -.200     23  2.500
     2   .000     23  2.500

 POTCAR:   PAW_PBE Ag 06Sep2000
   VRHFIN =Ag : s1 d10

   TITEL  = PAW_PBE Ag 06Sep2000
   POMASS =  107.868; ZVAL   =   11.000    mass and valenz
   ENMAX  =  249.846; ENMIN  =  187.385 eV
   QCUT   =   -4.285; QGAM   =    8.570    optimization parameters

[...]

 POTCAR:   PAW_PBE Fe_sv_h 08Apr2002
   VRHFIN =Fe:  d7 s1

   TITEL  = PAW_PBE Fe_sv_h 08Apr2002
   POMASS =   55.847; ZVAL   =   16.000    mass and valenz
   ENMAX  =  547.365; ENMIN  =  410.523 eV
   QCUT   =   -6.343; QGAM   =   12.685    optimization parameters

[...]

 POTCAR:    PAW_PBE Cl 17Jan2003
   VRHFIN =Cl: s2p5

   TITEL  = PAW_PBE Cl 17Jan2003
   POMASS =   35.453; ZVAL   =    7.000    mass and valenz
   ENMAX  =  280.000; ENMIN  =  196.854 eV
   QCUT   =   -4.392; QGAM   =    8.784    optimization parameters

   Description
     l     E      TYP  RCUT    TYP  RCUT
     0   .000     23  1.900
     0   .000     23  1.900
     1   .000     23  1.900
     1   .000     23  1.900
     2   .000     23  1.900

 PAW_PBE Cs_sv 08Apr2002                :
 PAW_PBE Ag 06Sep2000                   :
 PAW_PBE Fe_sv_h 08Apr2002              :
  PAW_PBE Cl 17Jan2003                  :

 POSCAR: cs2agfecl6
  positions in direct lattice
  velocities in cartesian coordinates
 exchange correlation table for  LEXCH =        8
   RHO(1)=    0.500       N(1)  =     2000
   RHO(2)=  100.500       N(2)  =     4000

 ion  position               nearest neighbor table
   1  0.250  0.750  0.750-
   2  0.750  0.250  0.250-
   3  0.750  0.250  0.750-
   4  0.250  0.750  0.250-
   5  0.750  0.750  0.250-
   6  0.250  0.250  0.750-
   7  0.250  0.250  0.250-
   8  0.750  0.750  0.750-
   9  0.500  0.000  0.500-  39 2.77  40 2.77  25 2.78  26 2.78  18 2.78  17 2.78
  10  0.500  0.500  0.000-  33 2.77  34 2.77  23 2.78  24 2.78  20 2.78  19 2.78
  11  0.000  0.500  0.500-  21 2.77  22 2.77  31 2.78  35 2.78  32 2.78  36 2.78
  12  0.000  0.000  0.000-  27 2.77  28 2.77  29 2.78  30 2.78  37 2.78  38 2.78
  13  0.500  0.500  0.500-  21 2.43  22 2.43  19 2.43  20 2.43  17 2.43  18 2.43
  14  0.500  0.000  0.000-  27 2.43  28 2.43  24 2.43  26 2.43  25 2.43  23 2.43
  15  0.000  0.500  0.000-  34 2.43  33 2.43  32 2.43  29 2.43  30 2.43  31 2.43
  16  0.000  0.000  0.500-  40 2.43  39 2.43  38 2.43  36 2.43  37 2.43  35 2.43
  17  0.500  0.734  0.500-  13 2.43   9 2.78
  18  0.500  0.266  0.500-  13 2.43   9 2.78
  19  0.500  0.500  0.734-  13 2.43  10 2.78
  20  0.500  0.500  0.266-  13 2.43  10 2.78
  21  0.734  0.500  0.500-  13 2.43  11 2.77
  22  0.266  0.500  0.500-  13 2.43  11 2.77
  23  0.500  0.234  0.000-  14 2.43  10 2.78
  24  0.500  0.766  0.000-  14 2.43  10 2.78
  25  0.500  0.000  0.234-  14 2.43   9 2.78
  26  0.500  0.000  0.766-  14 2.43   9 2.78
  27  0.734  0.000  0.000-  14 2.43  12 2.77
  28  0.266  0.000  0.000-  14 2.43  12 2.77
  29  0.000  0.734  0.000-  15 2.43  12 2.78
  30  0.000  0.266  0.000-  15 2.43  12 2.78
  31  0.000  0.500  0.234-  15 2.43  11 2.78
  32  0.000  0.500  0.766-  15 2.43  11 2.78
  33  0.234  0.500  0.000-  15 2.43  10 2.77
  34  0.766  0.500  0.000-  15 2.43  10 2.77
  35  0.000  0.234  0.500-  16 2.43  11 2.78
  36  0.000  0.766  0.500-  16 2.43  11 2.78
  37  0.000  0.000  0.734-  16 2.43  12 2.78
  38  0.000  0.000  0.266-  16 2.43  12 2.78
  39  0.234  0.000  0.500-  16 2.43   9 2.77
  40  0.766  0.000  0.500-  16 2.43   9 2.77

  LATTYP: Found a simple tetragonal cell.
 ALAT       =    10.4194141030
 C/A-ratio  =     0.9975870131

  Lattice vectors:

 A1 = (   0.0000000000,  10.4194141030,   0.0000000000)
 A2 = (   0.0000000000,   0.0000000000, -10.4194141030)
 A3 = ( -10.3942721929,   0.0000000000,   0.0000000000)

Analysis of symmetry for initial positions (statically):
 Subroutine PRICEL returns following result:

  LATTYP: Found a body centered tetragonal cell.
 ALAT       =     7.3676383682
 C/A-ratio  =     1.4108010835

[...]

   4 primitive cells build up your supercell.

 Routine SETGRP: Setting up the symmetry group for a
 simple tetragonal supercell.

 Subroutine GETGRP returns: Found 16 space group operations
 (whereof 16 operations were pure point group operations)
 out of a pool of 16 trial point group operations.

The static configuration has the point symmetry D_4h.

Analysis of symmetry for dynamics (positions and initial velocities):
 Subroutine PRICEL returns following result:

[...]

The dynamic configuration has the point symmetry D_4h.

Analysis of structural, dynamic, and magnetic symmetry:
 Subroutine PRICEL returns following result:

  LATTYP: Found a body centered tetragonal cell.
 ALAT       =     7.3676383682
 C/A-ratio  =     1.4108010835

  Lattice vectors:

 A1 = (   5.1971360964,   0.0000000000,  -5.2097070515)
 A2 = (   5.1971360964,   0.0000000000,   5.2097070515)
 A3 = (  -5.1971360964,  -5.2097070515,   0.0000000000)

   4 primitive cells build up your supercell.

 Routine SETGRP: Setting up the symmetry group for a
 simple tetragonal supercell.

 Subroutine GETGRP returns: Found 16 space group operations
 (whereof 16 operations were pure point group operations)
 out of a pool of 16 trial point group operations.

The magnetic configuration has the point symmetry D_4h.

 Subroutine INISYM returns: Found 16 space group operations
 (whereof 16 operations are pure point group operations),
 and found     4 'primitive' translations

Automatic generation of k-mesh.
 generate k-points for:    7    7    7
Space group operators:
 irot       det(A)        alpha          n_x          n_y          n_z        tau_x        tau_y        tau_z
    1     1.000000     0.000000     1.000000     0.000000     0.000000     0.000000     0.000000     0.000000
    2    -1.000000     0.000000     1.000000     0.000000     0.000000     0.000000     0.000000     0.000000
    3     1.000000    90.000000     1.000000     0.000000     0.000000     0.000000     0.000000     0.000000
    4    -1.000000    90.000000     1.000000     0.000000     0.000000     0.000000     0.000000     0.000000
    5     1.000000   180.000000     1.000000     0.000000     0.000000     0.000000     0.000000     0.000000
    6    -1.000000   180.000000     1.000000     0.000000     0.000000     0.000000     0.000000     0.000000
    7     1.000000    90.000000    -1.000000     0.000000     0.000000     0.000000     0.000000     0.000000
    8    -1.000000    90.000000    -1.000000     0.000000     0.000000     0.000000     0.000000     0.000000
    9     1.000000   180.000000     0.000000     0.000000     1.000000     0.000000     0.000000     0.000000
   10    -1.000000   180.000000     0.000000     0.000000     1.000000     0.000000     0.000000     0.000000
   11     1.000000   180.000000     0.000000    -0.707107     0.707107     0.000000     0.000000     0.000000
   12    -1.000000   180.000000     0.000000    -0.707107     0.707107     0.000000     0.000000     0.000000
   13     1.000000   180.000000     0.000000     1.000000     0.000000     0.000000     0.000000     0.000000
   14    -1.000000   180.000000     0.000000     1.000000     0.000000     0.000000     0.000000     0.000000
   15     1.000000   180.000000     0.000000     0.707107     0.707107     0.000000     0.000000     0.000000
   16    -1.000000   180.000000     0.000000     0.707107     0.707107     0.000000     0.000000     0.000000

 Subroutine IBZKPT returns following result:

 Found     40 irreducible k-points:

 Following reciprocal coordinates:
            Coordinates               Weight
  0.000000  0.000000  0.000000      1.000000
  0.142857  0.000000  0.000000      2.000000
  0.285714  0.000000  0.000000      2.000000
  0.428571  0.000000  0.000000      2.000000
  0.000000  0.142857  0.000000      4.000000
  0.142857  0.142857  0.000000      8.000000
  0.285714  0.142857  0.000000      8.000000
  0.428571  0.142857  0.000000      8.000000
  0.000000  0.285714  0.000000      4.000000
  0.142857  0.285714  0.000000      8.000000
  0.285714  0.285714  0.000000      8.000000
  0.428571  0.285714  0.000000      8.000000
  0.000000  0.428571  0.000000      4.000000
  0.142857  0.428571  0.000000      8.000000
  0.285714  0.428571  0.000000      8.000000
  0.428571  0.428571  0.000000      8.000000
  0.000000  0.142857  0.142857      4.000000
  0.142857  0.142857  0.142857      8.000000
  0.285714  0.142857  0.142857      8.000000
  0.428571  0.142857  0.142857      8.000000
  0.000000  0.285714  0.142857      8.000000
  0.142857  0.285714  0.142857     16.000000
  0.285714  0.285714  0.142857     16.000000
  0.428571  0.285714  0.142857     16.000000
  0.000000  0.428571  0.142857      8.000000
  0.142857  0.428571  0.142857     16.000000
  0.285714  0.428571  0.142857     16.000000
  0.428571  0.428571  0.142857     16.000000
  0.000000  0.285714  0.285714      4.000000
  0.142857  0.285714  0.285714      8.000000
  0.285714  0.285714  0.285714      8.000000
  0.428571  0.285714  0.285714      8.000000
  0.000000  0.428571  0.285714      8.000000
  0.142857  0.428571  0.285714     16.000000
  0.285714  0.428571  0.285714     16.000000
  0.428571  0.428571  0.285714     16.000000
  0.000000  0.428571  0.428571      4.000000
  0.142857  0.428571  0.428571      8.000000
  0.285714  0.428571  0.428571      8.000000
  0.428571  0.428571  0.428571      8.000000

 Following cartesian coordinates:
            Coordinates               Weight
  0.000000  0.000000  0.000000      1.000000
  0.013744  0.000000  0.000000      2.000000
  0.027488  0.000000  0.000000      2.000000
  0.041231  0.000000  0.000000      2.000000
  0.000000  0.013711  0.000000      4.000000
  0.013744  0.013711  0.000000      8.000000
  0.027488  0.013711  0.000000      8.000000
  0.041231  0.013711  0.000000      8.000000
  0.000000  0.027421  0.000000      4.000000
  0.013744  0.027421  0.000000      8.000000
  0.027488  0.027421  0.000000      8.000000
  0.041231  0.027421  0.000000      8.000000
  0.000000  0.041132  0.000000      4.000000
  0.013744  0.041132  0.000000      8.000000
  0.027488  0.041132  0.000000      8.000000
  0.041231  0.041132  0.000000      8.000000
  0.000000  0.013711  0.013711      4.000000
  0.013744  0.013711  0.013711      8.000000
  0.027488  0.013711  0.013711      8.000000
  0.041231  0.013711  0.013711      8.000000
  0.000000  0.027421  0.013711      8.000000
  0.013744  0.027421  0.013711     16.000000
  0.027488  0.027421  0.013711     16.000000
[...]
      0.00000      5.20971      2.43322         0.000000      0.000000     -0.022775
      0.00000      5.20971      7.98619         0.000000     -0.000000      0.022775
      2.43211      5.20971      0.00000         0.007835      0.000000      0.000000
      7.96216      5.20971      0.00000        -0.007835     -0.000000      0.000000
      0.00000      2.43322      5.20971         0.000000     -0.022775     -0.000000
      0.00000      7.98619      5.20971         0.000000      0.022775     -0.000000
      0.00000      0.00000      7.64293         0.000000      0.000000     -0.022775
      0.00000      0.00000      2.77649         0.000000      0.000000      0.022775
      2.43211      0.00000      5.20971         0.007835      0.000000     -0.000000
      7.96216      0.00000      5.20971        -0.007835     -0.000000     -0.000000
    total drift:                               -0.001083     -0.001086     -0.001086

  FREE ENERGIE OF THE ION-ELECTRON SYSTEM (eV)
  free  energy   TOTEN  =      -134.00024029 eV

  energy  without entropy=     -134.00024029  energy(sigma->0) =     -134.00024029

 writing wavefunctions

 plasma frequency squared (from intraband transitions)
       0.000       0.000       0.000
       0.000       0.000       0.000
       0.000       0.000       0.000

 electrical conductivity sigma (Mega S m-1) (frequency dependency in vasprun.xml)
       0.000      -0.000       0.000
       0.000       0.000       0.000
       0.000       0.000       0.000

 plasma frequency squared (from intraband transitions)

 plasma frequency squared (from interband transitions, int dw w eps(2)(w)
     219.706       0.000       0.000
       0.000     219.656       0.000
       0.000       0.000     219.656
 plasma frequency squared  (valence only):     425.228

  frequency dependent IMAGINARY DIELECTRIC FUNCTION (independent particle, no local field effects)
     E(ev)      X         Y         Z        XY        YZ        ZX
    0.000000    0.000000    0.000000    0.000000    0.000000    0.000000    0.000000
    0.156897    0.008324    0.007666    0.007666   -0.000000    0.000000    0.000000
    0.313794    0.017071    0.015725    0.015725   -0.000000    0.000000    0.000000
    0.470691    0.026729    0.024635    0.024635   -0.000000    0.000000    0.000000
    0.627589    0.037936    0.034998    0.034998   -0.000000    0.000000    0.000000
    0.784486    0.051616    0.047707    0.047707   -0.000000    0.000000    0.000000
    0.941383    0.069237    0.064214    0.064214   -0.000000    0.000000    0.000000
    1.098280    0.093351    0.087136    0.087136   -0.000000    0.000000    0.000000
    1.255177    0.128888    0.121830    0.121830   -0.000000    0.000000    0.000000
    1.412074    0.186964    0.181597    0.181597   -0.000000    0.000000    0.000000
    1.568971    0.298960    0.307189    0.307189   -0.000000    0.000000    0.000000
    1.725868    0.584289    0.673777    0.673777   -0.000000    0.000000    0.000000
    1.882766    1.249465    1.568953    1.568953   -0.000000    0.000000    0.000000
    2.039663    2.729676    2.484418    2.484418    0.000000    0.000000    0.000000
    2.196560    6.169072    3.648441    3.648441    0.000000    0.000000    0.000000
    2.353457    4.557435    3.960622    3.960622   -0.000000    0.000000    0.000000
    2.510354    2.807383    3.022814    3.022814   -0.000000    0.000000    0.000000
    2.667251    2.492547    2.488721    2.488721   -0.000000    0.000000    0.000000
    2.824148    3.028852    3.058121    3.058121   -0.000000    0.000000    0.000000
    2.981045    2.639117    2.485579    2.485579   -0.000000    0.000000    0.000000
    3.137943    1.783290    1.706019    1.706019   -0.000000    0.000000    0.000000
    3.294840    1.175693    1.168644    1.168644    0.000000    0.000000    0.000000
    3.451737    0.786923    0.811698    0.811698   -0.000000    0.000000    0.000000
    3.608634    0.630020    0.563371    0.563371   -0.000000    0.000000    0.000000
    3.765531    0.594290    0.570588    0.570588    0.000000    0.000000   -0.000000
    3.922428    0.637035    0.669215    0.669215    0.000000    0.000000   -0.000000
    4.079325    0.692808    0.748083    0.748083    0.000000    0.000000   -0.000000
    4.236222    0.703276    0.773677    0.773677   -0.000000    0.000000   -0.000000
    4.393120    0.691594    0.924991    0.924991   -0.000000    0.000000   -0.000000
    4.550017    0.773509    1.277356    1.277356    0.000000    0.000000   -0.000000
    4.706914    1.203980    1.478107    1.478107    0.000000    0.000000   -0.000000
    4.863811    1.529153    1.388734    1.388734    0.000000    0.000000   -0.000000
    5.020708    1.486729    1.265522    1.265522    0.000000    0.000000    0.000000
    5.177605    1.439509    1.306264    1.306264    0.000000    0.000000    0.000000
    5.334502    1.319695    1.248142    1.248142    0.000000    0.000000    0.000000
    5.491399    1.043284    1.052727    1.052727   -0.000000    0.000000    0.000000
    5.648297    1.006839    1.083576    1.083576   -0.000000    0.000000   -0.000000
    5.805194    1.053738    1.332178    1.332178   -0.000000    0.000000   -0.000000
    5.962091    1.235661    1.629343    1.629343    0.000000    0.000000    0.000000
    6.118988    1.487238    1.666230    1.666230    0.000000    0.000000   -0.000000
    6.275885    1.695602    1.721458    1.721458    0.000000    0.000000   -0.000000
    6.432782    1.799360    1.767192    1.767192   -0.000000    0.000000   -0.000000
    6.589679    1.982060    1.852317    1.852317   -0.000000    0.000000   -0.000000
    6.746576    2.037016    1.882210    1.882210   -0.000000    0.000000   -0.000000
    6.903474    2.005052    1.943970    1.943970   -0.000000    0.000000   -0.000000
    7.060371    2.073192    2.076043    2.076043   -0.000000    0.000000   -0.000000
    7.217268    2.208248    2.229357    2.229357    0.000000    0.000000   -0.000000
    7.374165    2.391812    2.351300    2.351300   -0.000000    0.000000    0.000000
    7.531062    2.536703    2.510738    2.510738   -0.000000    0.000000    0.000000
    7.687959    2.713847    2.690448    2.690448   -0.000000    0.000000    0.000000
    7.844856    2.933290    2.887134    2.887134   -0.000000    0.000000    0.000000
    8.001754    3.253148    3.226804    3.226804   -0.000000    0.000000    0.000000
    8.158651    3.145467    3.133883    3.133883   -0.000000    0.000000   -0.000000
    8.315548    3.071292    3.152933    3.152933   -0.000000    0.000000    0.000000
    8.472445    3.245829    3.344152    3.344152    0.000000    0.000000    0.000000
    8.629342    3.436494    3.458107    3.458107    0.000000    0.000000   -0.000000
    8.786239    3.779336    3.724915    3.724915    0.000000    0.000000   -0.000000
    8.943136    3.745651    3.762533    3.762533   -0.000000    0.000000   -0.000000
    9.100033    3.748971    3.761249    3.761249   -0.000000    0.000000   -0.000000
    9.256931    3.675032    3.641761    3.641761   -0.000000    0.000000    0.000000
[...]
  123.164245    0.000025    0.000025    0.000025    0.000000    0.000000    0.000000
  123.321142    0.000024    0.000024    0.000024    0.000000    0.000000    0.000000
  123.478040    0.000024    0.000024    0.000024    0.000000    0.000000    0.000000
  123.634937    0.000024    0.000024    0.000024    0.000000    0.000000    0.000000
  123.791834    0.000024    0.000024    0.000024    0.000000    0.000000    0.000000
  123.948731    0.000024    0.000024    0.000024    0.000000    0.000000    0.000000
  124.105628    0.000024    0.000024    0.000024    0.000000    0.000000    0.000000
  124.262525    0.000024    0.000024    0.000024    0.000000    0.000000    0.000000
  124.419422    0.000024    0.000024    0.000024    0.000000    0.000000    0.000000
  124.576319    0.000024    0.000024    0.000024    0.000000    0.000000    0.000000
  124.733217    0.000024    0.000024    0.000024    0.000000    0.000000    0.000000
  124.890114    0.000024    0.000024    0.000024    0.000000    0.000000    0.000000
  125.047011    0.000023    0.000023    0.000023    0.000000    0.000000    0.000000
  125.203908    0.000023    0.000023    0.000023    0.000000    0.000000    0.000000
  125.360805    0.000023    0.000023    0.000023    0.000000    0.000000    0.000000

  frequency dependent      REAL DIELECTRIC FUNCTION (independent particle, no local field effects)
     E(ev)      X         Y         Z        XY        YZ        ZX
    0.000000    4.328439    4.225715    4.225715   -0.000000    0.000000    0.000000
    0.156897    4.334899    4.231663    4.231663   -0.000000    0.000000    0.000000
    0.313794    4.354597    4.249807    4.249807   -0.000000    0.000000    0.000000
    0.470691    4.388546    4.281085    4.281085   -0.000000    0.000000    0.000000
    0.627589    4.438604    4.327232    4.327232   -0.000000    0.000000    0.000000
    0.784486    4.507798    4.391102    4.391102   -0.000000    0.000000    0.000000
    0.941383    4.600896    4.477237    4.477237   -0.000000    0.000000    0.000000
    1.098280    4.725553    4.593069    4.593069   -0.000000    0.000000    0.000000
    1.255177    4.894585    4.751367    4.751367   -0.000000    0.000000    0.000000
    1.412074    5.131000    4.975903    4.975903   -0.000000    0.000000    0.000000
    1.568971    5.478770    5.312000    5.312000   -0.000000    0.000000    0.000000
    1.725868    6.008301    5.826884    5.826884   -0.000000    0.000000    0.000000
    1.882766    6.626094    6.105966    6.105966   -0.000000    0.000000    0.000000
    2.039663    7.308899    5.938600    5.938600    0.000000    0.000000    0.000000
    2.196560    5.702156    5.396317    5.396317   -0.000000    0.000000    0.000000
    2.353457    2.593281    3.605730    3.605730   -0.000000    0.000000    0.000000
    2.510354    2.114382    2.803206    2.803206    0.000000    0.000000   -0.000000
    2.667251    2.700156    2.955191    2.955191    0.000000    0.000000   -0.000000
    2.824148    2.724271    2.789875    2.789875    0.000000    0.000000   -0.000000
    2.981045    1.620604    1.826812    1.826812    0.000000    0.000000   -0.000000
    3.137943    1.508622    1.703043    1.703043    0.000000    0.000000   -0.000000
    3.294840    1.619011    1.873318    1.873318    0.000000    0.000000   -0.000000
    3.451737    2.000454    2.118480    2.118480    0.000000    0.000000   -0.000000
    3.608634    2.331011    2.469618    2.469618    0.000000    0.000000   -0.000000
    3.765531    2.620485    2.839306    2.839306    0.000000    0.000000   -0.000000
    3.922428    2.833922    3.027421    3.027421    0.000000    0.000000   -0.000000
    4.079325    2.971883    3.176701    3.176701   -0.000000    0.000000   -0.000000
    4.236222    3.085257    3.310077    3.310077   -0.000000    0.000000   -0.000000
    4.393120    3.217904    3.512870    3.512870    0.000000    0.000000    0.000000
    4.550017    3.498394    3.539392    3.539392    0.000000    0.000000    0.000000
    4.706914    3.735044    3.336979    3.336979    0.000000    0.000000    0.000000
    4.863811    3.376104    3.112066    3.112066   -0.000000    0.000000    0.000000
    5.020708    3.223940    3.126897    3.126897   -0.000000    0.000000    0.000000
    5.177605    3.018886    3.170303    3.170303    0.000000    0.000000   -0.000000
    5.334502    2.914924    3.076942    3.076942   -0.000000    0.000000   -0.000000
    5.491399    3.046068    3.186118    3.186118   -0.000000    0.000000   -0.000000
    5.648297    3.271162    3.506326    3.506326   -0.000000    0.000000   -0.000000
    5.805194    3.472316    3.687081    3.687081    0.000000    0.000000    0.000000
    5.962091    3.710544    3.608490    3.608490    0.000000    0.000000   -0.000000
    6.118988    3.741583    3.508394    3.508394   -0.000000    0.000000   -0.000000
    6.275885    3.688191    3.458924    3.458924   -0.000000    0.000000    0.000000
    6.432782    3.674190    3.505066    3.505066   -0.000000    0.000000    0.000000
    6.589679    3.595974    3.447235    3.447235   -0.000000    0.000000   -0.000000
    6.746576    3.474703    3.485534    3.485534   -0.000000    0.000000    0.000000
    6.903474    3.435220    3.497875    3.497875   -0.000000    0.000000    0.000000
    7.060371    3.551626    3.581799    3.581799   -0.000000    0.000000    0.000000
    7.217268    3.574069    3.545413    3.545413   -0.000000    0.000000    0.000000
    7.374165    3.579692    3.570386    3.570386   -0.000000    0.000000    0.000000
    7.531062    3.546145    3.564632    3.564632   -0.000000    0.000000    0.000000
    7.687959    3.510564    3.505625    3.505625   -0.000000    0.000000   -0.000000
    7.844856    3.486365    3.505825    3.505825   -0.000000    0.000000   -0.000000
    8.001754    3.179238    3.227407    3.227407    0.000000    0.000000   -0.000000
    8.158651    2.861666    2.946842    2.946842    0.000000    0.000000   -0.000000
    8.315548    2.921602    2.993312    2.993312    0.000000    0.000000    0.000000
    8.472445    2.918092    2.885560    2.885560    0.000000    0.000000   -0.000000
    8.629342    2.872157    2.778406    2.778406    0.000000    0.000000   -0.000000
    8.786239    2.553022    2.523759    2.523759   -0.000000    0.000000    0.000000
    8.943136    2.183239    2.198491    2.198491   -0.000000    0.000000    0.000000
    9.100033    1.895984    1.875987    1.875987   -0.000000    0.000000    0.000000
    9.256931    1.569488    1.544077    1.544077   -0.000000    0.000000    0.000000
[...]
  123.164245    0.985221    0.985224    0.985224   -0.000000    0.000000   -0.000000
  123.321142    0.985259    0.985262    0.985262   -0.000000    0.000000   -0.000000
  123.478040    0.985298    0.985300    0.985300   -0.000000    0.000000   -0.000000
  123.634937    0.985336    0.985339    0.985339   -0.000000    0.000000   -0.000000
  123.791834    0.985374    0.985377    0.985377   -0.000000    0.000000   -0.000000
  123.948731    0.985412    0.985415    0.985415   -0.000000    0.000000   -0.000000
  124.105628    0.985450    0.985452    0.985452   -0.000000    0.000000   -0.000000
  124.262525    0.985487    0.985490    0.985490   -0.000000    0.000000   -0.000000
  124.419422    0.985525    0.985527    0.985527   -0.000000    0.000000   -0.000000
  124.576319    0.985562    0.985565    0.985565   -0.000000    0.000000   -0.000000
  124.733217    0.985599    0.985602    0.985602   -0.000000    0.000000   -0.000000
  124.890114    0.985636    0.985639    0.985639   -0.000000    0.000000   -0.000000
  125.047011    0.985673    0.985676    0.985676   -0.000000    0.000000   -0.000000
  125.203908    0.985710    0.985712    0.985712   -0.000000    0.000000   -0.000000
  125.360805    0.985746    0.985749    0.985749   -0.000000    0.000000   -0.000000

 The outermost node in the dielectric function lies at epsilon=  19.4

 total charge

[...]

 magnetization (x)

# of ion     s       p       d       tot
  1       -0.000  -0.000   0.000  -0.000
  2       -0.000  -0.000   0.000  -0.000
  3        0.000   0.000  -0.000   0.000
  4        0.000   0.000  -0.000   0.000
  5        0.000   0.000  -0.000   0.000
  6        0.000   0.000  -0.000   0.000
  7       -0.000  -0.000   0.000  -0.000
  8       -0.000  -0.000   0.000  -0.000
  9        0.003   0.002   0.016   0.021
 10        0.003   0.002   0.016   0.021
 11       -0.003  -0.002  -0.016  -0.021
 12       -0.003  -0.002  -0.016  -0.021
 13        0.011   0.011   3.852   3.875
 14        0.011   0.011   3.852   3.875
 15       -0.011  -0.011  -3.852  -3.875
 16       -0.011  -0.011  -3.852  -3.875
 17        0.005   0.077   0.000   0.082
 18        0.005   0.077   0.000   0.082
 19        0.004   0.078   0.000   0.081
 20        0.004   0.078   0.000   0.081
 21        0.004   0.071   0.000   0.075
 22        0.004   0.071   0.000   0.075
 23        0.005   0.077   0.000   0.082
 24        0.005   0.077   0.000   0.082
 25        0.004   0.078   0.000   0.081
 26        0.004   0.078   0.000   0.081
 27        0.004   0.071   0.000   0.075
 28        0.004   0.071   0.000   0.075
 29       -0.005  -0.077   0.000  -0.082
 30       -0.005  -0.077   0.000  -0.082
 31       -0.004  -0.078   0.000  -0.081
 32       -0.004  -0.078   0.000  -0.081
 33       -0.004  -0.071   0.000  -0.075
 34       -0.004  -0.071   0.000  -0.075
 35       -0.005  -0.077   0.000  -0.082
 36       -0.005  -0.077   0.000  -0.082
 37       -0.004  -0.078   0.000  -0.081
 38       -0.004  -0.078   0.000  -0.081
 39       -0.004  -0.071   0.000  -0.075
 40       -0.004  -0.071   0.000  -0.075
tot        0.000   0.000  -0.000   0.000