 vasp.5.4.4.18Apr17-6-g9f103f2a35 (build Nov 16 2017 20:25:21) complex

 executed on             LinuxIFC date 2020.05.08  16:54:34

 INCAR:
 POTCAR:   PAW_PBE Ga 08Apr2002
 POTCAR:   PAW_PBE As 06Sep2000
 POTCAR:   PAW_PBE Ga 08Apr2002
   VRHFIN =Ga: s2p1

   TITEL  = PAW_PBE Ga 08Apr2002
   POMASS =   69.723; ZVAL   =    3.000    mass and valenz
   ENMAX  =  134.678; ENMIN  =  101.009 eV
   QCUT   =   -3.146; QGAM   =    6.292    optimization parameters

   Description
     l     E      TYP  RCUT    TYP  RCUT
     0   .000     23  2.600
     0   .000     23  2.600
     1   .000     23  2.600
     1   .000     23  2.600
     2   .100     23  2.600
     3  -.100      7  2.600

 POTCAR:   PAW_PBE As 06Sep2000
   VRHFIN =As: s2p3

   TITEL  = PAW_PBE As 06Sep2000
   POMASS =   74.922; ZVAL   =    5.000    mass and valenz
   ENMAX  =  208.680; ENMIN  =  156.510 eV
   QCUT   =   -3.916; QGAM   =    7.833    optimization parameters

   Description
     l     E      TYP  RCUT    TYP  RCUT
     0   .000     23  2.100
     0   .000     23  2.100
     1   .000     23  2.100
     1   .000     23  2.100
     2   .000     23  2.100
     3  -.100      7  2.100

 PAW_PBE Ga 08Apr2002                   :
 PAW_PBE As 06Sep2000                   :

 POSCAR: gaas_mp-8883_computed\(1)
  positions in direct lattice
  velocities in cartesian coordinates
 exchange correlation table for  LEXCH =        8
   RHO(1)=    0.500       N(1)  =     2000
   RHO(2)=  100.500       N(2)  =     4000

 ion  position               nearest neighbor table
   1  0.328  0.672  0.213-   4 2.50   4 2.50   4 2.50   3 2.79   2 3.02   2 3.02   2 3.02
   2  0.669  0.331  0.126-   3 2.50   3 2.50   3 2.50   4 2.79   1 3.02   1 3.02   1 3.02
   3  0.339  0.661  0.085-   2 2.50   2 2.50   2 2.50   1 2.79
   4  0.658  0.342  0.253-   1 2.50   1 2.50   1 2.50   2 2.79

IMPORTANT INFORMATION: All symmetrisations will be switched off!
NOSYMM: (Re-)initialisation of all symmetry stuff for point group C_1.

 KPOINTS: K-Path Generated by VASPKIT.
  interpolating k-points between supplied coordinates
  k-points in reciprocal lattice
Space group operators:
 irot       det(A)        alpha          n_x          n_y          n_z        tau_x        tau_y        tau_z
    1     1.000000     0.000001     1.000000     0.000000     0.000000     0.000000     0.000000     0.000000

 SYSTEM =  Silicene
 POSCAR =  gaas_mp-8883_computed\(1)

 Startparameter for this run:
   NWRITE =      2    write-flag & timer
   PREC   = accura    normal or accurate (medium, high low for compatibility)
   ISTART =      1    job   : 0-new  1-cont  2-samecut
   ICHARG =     11    charge: 1-file 2-atom 10-const
   ISPIN  =      1    spin polarized calculation?
   LNONCOLLINEAR =      F non collinear calculations
   LSORBIT =      F    spin-orbit coupling
   INIWAV =      1    electr: 0-lowe 1-rand  2-diag
   LASPH  =      F    aspherical Exc in radial PAW
   METAGGA=      F    non-selfconsistent MetaGGA calc.

 Electronic Relaxation 1
   ENCUT  =  520.0 eV  38.22 Ry    6.18 a.u.   7.53  7.53 40.52*2*pi/ulx,y,z
   ENINI  =  520.0     initial cutoff
   ENAUG  =  462.8 eV  augmentation charge cutoff
   NELM   =    200;   NELMIN=  5; NELMDL=  0     # of ELM steps
   EDIFF  = 0.1E-07   stopping-criterion for ELM
   LREAL  =      F    real-space projection
   NLSPLINE    = F    spline interpolate recip. space projectors
   LCOMPAT=      F    compatible to vasp.4.4
   GGA_COMPAT  = T    GGA compatible to vasp.4.4-vasp.4.6
   LMAXPAW     = -100 max onsite density
   LMAXMIX     =    2 max onsite mixed and CHGCAR
   VOSKOWN=      0    Vosko Wilk Nusair interpolation
   ROPT   =    0.00000   0.00000
 Ionic relaxation
   EDIFFG = -.1E-03   stopping-criterion for IOM
   NSW    =      0    number of steps for IOM
   NBLOCK =      1;   KBLOCK =      1    inner block; outer block
   IBRION =     -1    ionic relax: 0-MD 1-quasi-New 2-CG
   NFREE  =      0    steps in history (QN), initial steepest desc. (CG)
   ISIF   =      3    stress and relaxation
   IWAVPR =     10    prediction:  0-non 1-charg 2-wave 3-comb
   ISYM   =      0    0-nonsym 1-usesym 2-fastsym
   LCORR  =      T    Harris-Foulkes like correction to forces

   POTIM  = 0.5000    time-step for ionic-motion
   TEIN   =    0.0    initial temperature
   TEBEG  =    0.0;   TEEND  =   0.0 temperature during run
   SMASS  =  -3.00    Nose mass-parameter (am)
   estimated Nose-frequenzy (Omega)   =  0.10E-29 period in steps =****** mass=  -0.375E-27a.u.
   SCALEE = 1.0000    scale energy and forces
   NPACO  =    256;   APACO  = 16.0  distance and # of slots for P.C.
   PSTRESS=    0.0 pullay stress

  Mass of Ions in am
   POMASS =  69.72 74.92
  Ionic Valenz
   ZVAL   =   3.00  5.00
  Atomic Wigner-Seitz radii
  virtual crystal weights
   VCA    =   1.00  1.00
   NELECT =      16.0000    total number of electrons
   NUPDOWN=      -1.0000    fix difference up-down

 DOS related values:
   EMIN   =  10.00;   EMAX   =-10.00  energy-range for DOS
   EFERMI =   0.00
   ISMEAR =     0;   SIGMA  =   0.05  broadening in eV -4-tet -1-fermi 0-gaus

 Electronic relaxation 2 (details)
   IALGO  =     38    algorithm
   LDIAG  =      T    sub-space diagonalisation (order eigenvalues)
   LSUBROT=      F    optimize rotation matrix (better conditioning)
   TURBO    =      0    0=normal 1=particle mesh
   IRESTART =      0    0=no restart 2=restart with 2 vectors
   NREBOOT  =      0    no. of reboots
   NMIN     =      0    reboot dimension
   EREF     =   0.00    reference energy to select bands
   IMIX   =      4    mixing-type and parameters
     AMIX     =   0.40;   BMIX     =  1.00
     AMIX_MAG =   1.60;   BMIX_MAG =  1.00
     AMIN     =   0.10
     WC   =   100.;   INIMIX=   1;  MIXPRE=   1;  MAXMIX= -45

 Intra band minimization:
   WEIMIN = 0.0000     energy-eigenvalue tresh-hold
   EBREAK =  0.21E-09  absolut break condition
   DEPER  =   0.30     relativ break condition

   TIME   =   0.40     timestep for ELM

  volume/ion in A,a.u.               =      77.41       522.41
  Fermi-wavevector in a.u.,A,eV,Ry     =   0.609755  1.152271  5.058669  0.371802
  Thomas-Fermi vector in A             =   1.665067

 Write flags
   LWAVE        =      T    write WAVECAR
   LDOWNSAMPLE  =      F    k-point downsampling of WAVECAR
   LCHARG       =      T    write CHGCAR
   LVTOT        =      F    write LOCPOT, total local potential
   LVHAR        =      F    write LOCPOT, Hartree potential only
   LELF         =      F    write electronic localiz. function (ELF)
   LORBIT       =     11    0 simple, 1 ext, 2 COOP (PROOUT), +10 PAW based schemes

 Dipole corrections
   LMONO  =      F    monopole corrections only (constant potential shift)
   LDIPOL =      F    correct potential (dipole corrections)
   IDIPOL =      0    1-x, 2-y, 3-z, 4-all directions
   EPSILON=  1.0000000 bulk dielectric constant

 Exchange correlation treatment:
   GGA     =    --    GGA type
   VOSKOWN=      0    Vosko Wilk Nusair interpolation
   LHFCALC =     F    Hartree Fock is set to
   LHFONE  =     F    Hartree Fock one center treatment
   AEXX    =    0.0000 exact exchange contribution

 Linear response parameters
   LEPSILON=     F    determine dielectric tensor
   LRPA    =     F    only Hartree local field effects (RPA)
   LNABLA  =     F    use nabla operator in PAW spheres
   LVEL    =     F    velocity operator in full k-point grid
   LINTERFAST=   F  fast interpolation
   KINTER  =     0    interpolate to denser k-point grid
   CSHIFT  =0.1000    complex shift for real part using Kramers Kronig
   OMEGAMAX=  -1.0    maximum frequency
   DEG_THRESHOLD= 0.2000000E-02 threshold for treating states as degnerate
   RTIME   =   -0.100 relaxation time in fs
  (WPLASMAI=    0.000 imaginary part of plasma frequency in eV, 0.658/RTIME)
   DFIELD  = 0.0000000 0.0000000 0.0000000 field for delta impulse in time

 Orbital magnetization related:
   ORBITALMAG=     F  switch on orbital magnetization
   LCHIMAG   =     F  perturbation theory with respect to B field
   DQ        =  0.001000  dq finite difference perturbation B field
   LLRAUG    =     F  two centre corrections for induced B field

 Static calculation
 charge density and potential remain constant during run
 non-spin polarized calculation
 Variant of blocked Davidson
 Davidson routine will perform the subspace rotation
 perform sub-space diagonalisation
    after iterative eigenvector-optimisation
 no mixing
 using additional bands            4
 reciprocal scheme for non local part
 use partial core corrections
 calculate Harris-corrections to forces
   (improved forces if not selfconsistent)
 use gradient corrections
 WARNING: stress and forces are not correct
  (second derivative of E(xc) not defined)
 use of overlap-Matrix (Vanderbilt PP)
 Gauss-broadening in eV      SIGMA  =   0.05

  energy-cutoff  :      520.00
  volume of cell :      309.65
      direct lattice vectors                 reciprocal lattice vectors
     4.051284713  0.000154209  0.043284580     0.246852137  0.142481774 -0.002085301
    -2.025507392  3.508586340 -0.043745526    -0.000033745  0.285022313  0.002142954
     0.278592806 -0.163783236 21.788273737    -0.000490464  0.000289201  0.045904693

  length of vectors
     4.051515939  4.051514776 21.790670282     0.285028739  0.285030371  0.045908224

 old parameters found on file WAVECAR:
  energy-cutoff  :      520.00
  volume of cell :      309.65
      direct lattice vectors                 reciprocal lattice vectors
     4.051284713  0.000154209  0.043284580     0.246852137  0.142481774 -0.002085301
    -2.025507392  3.508586340 -0.043745526    -0.000033745  0.285022313  0.002142954
     0.278592806 -0.163783236 21.788273737    -0.000490464  0.000289201  0.045904693

  length of vectors

 k-points in units of 2pi/SCALE and weight: K-Path Generated by VASPKIT.
   0.08227280  0.14250136  0.00001922       0.007
   0.08059376  0.13959317  0.00001883       0.007
   0.07891472  0.13668498  0.00001843       0.007
   0.07723569  0.13377679  0.00001804       0.007
   0.07555665  0.13086860  0.00001765       0.007
   0.07387761  0.12796041  0.00001726       0.007
   0.07219858  0.12505222  0.00001686       0.007
   0.07051954  0.12214402  0.00001647       0.007
   0.06884050  0.11923583  0.00001608       0.007
   0.06716147  0.11632764  0.00001569       0.007
   0.06548243  0.11341945  0.00001530       0.007
   0.06380339  0.11051126  0.00001490       0.007
   0.06212436  0.10760307  0.00001451       0.007
   0.06044532  0.10469488  0.00001412       0.007
   0.05876628  0.10178669  0.00001373       0.007
   0.05708725  0.09887850  0.00001333       0.007
   0.05540821  0.09597031  0.00001294       0.007
   0.05372917  0.09306211  0.00001255       0.007
   0.05205014  0.09015392  0.00001216       0.007
   0.05037110  0.08724573  0.00001177       0.007
   0.04869206  0.08433754  0.00001137       0.007
   0.04701303  0.08142935  0.00001098       0.007
   0.04533399  0.07852116  0.00001059       0.007
   0.04365495  0.07561297  0.00001020       0.007
   0.04197592  0.07270478  0.00000981       0.007
   0.04029688  0.06979659  0.00000941       0.007
[...]
   0.04081633  0.00000000  0.00000000       0.007
   0.05102041  0.00000000  0.00000000       0.007
   0.06122449  0.00000000  0.00000000       0.007
   0.07142857  0.00000000  0.00000000       0.007
   0.08163265  0.00000000  0.00000000       0.007
   0.09183673  0.00000000  0.00000000       0.007
[...]
   0.38095238  0.23809524  0.00000000       0.007
   0.37755102  0.24489796  0.00000000       0.007
   0.37414966  0.25170068  0.00000000       0.007
   0.37074830  0.25850340  0.00000000       0.007
   0.36734694  0.26530612  0.00000000       0.007
   0.36394558  0.27210884  0.00000000       0.007
   0.36054422  0.27891156  0.00000000       0.007
   0.35714286  0.28571429  0.00000000       0.007
   0.35374150  0.29251701  0.00000000       0.007
   0.35034014  0.29931973  0.00000000       0.007
   0.34693878  0.30612245  0.00000000       0.007
   0.34353741  0.31292517  0.00000000       0.007
   0.34013605  0.31972789  0.00000000       0.007
   0.33673469  0.32653061  0.00000000       0.007
   0.33333333  0.33333333  0.00000000       0.007

 position of ions in fractional coordinates (direct lattice)
   0.32816098  0.67150690  0.21315756
   0.66880366  0.33064835  0.12556902
   0.33882897  0.66052297  0.08522689
   0.65813643  0.34163181  0.25349852

 position of ions in cartesian coordinates  (Angst):
   0.02871552  2.32117892  4.62916415
   2.07476601  1.13964531  2.75041672
   0.05854205  2.30359539  1.84271795
   2.04494315  1.15722739  5.53683742

 k-point  1 :   0.3333 0.3333 0.0000  plane waves:    8314
 k-point  2 :   0.3265 0.3265 0.0000  plane waves:    8313
 k-point  3 :   0.3197 0.3197 0.0000  plane waves:    8301
 k-point  4 :   0.3129 0.3129 0.0000  plane waves:    8311
 k-point  5 :   0.3061 0.3061 0.0000  plane waves:    8308
 k-point  6 :   0.2993 0.2993 0.0000  plane waves:    8309
 k-point  7 :   0.2925 0.2925 0.0000  plane waves:    8300
 k-point  8 :   0.2857 0.2857 0.0000  plane waves:    8299
 k-point  9 :   0.2789 0.2789 0.0000  plane waves:    8295
 k-point 10 :   0.2721 0.2721 0.0000  plane waves:    8300
 k-point 11 :   0.2653 0.2653 0.0000  plane waves:    8304
 k-point 12 :   0.2585 0.2585 0.0000  plane waves:    8306
 k-point 13 :   0.2517 0.2517 0.0000  plane waves:    8300
 k-point 14 :   0.2449 0.2449 0.0000  plane waves:    8306
 k-point 15 :   0.2381 0.2381 0.0000  plane waves:    8300
 k-point 16 :   0.2313 0.2313 0.0000  plane waves:    8304
 k-point 17 :   0.2245 0.2245 0.0000  plane waves:    8310
 k-point 18 :   0.2177 0.2177 0.0000  plane waves:    8315
 k-point 19 :   0.2109 0.2109 0.0000  plane waves:    8336
 k-point 20 :   0.2041 0.2041 0.0000  plane waves:    8336
 k-point 21 :   0.1973 0.1973 0.0000  plane waves:    8344
 k-point 22 :   0.1905 0.1905 0.0000  plane waves:    8343
 k-point 23 :   0.1837 0.1837 0.0000  plane waves:    8343
 k-point 24 :   0.1769 0.1769 0.0000  plane waves:    8341
 k-point 25 :   0.1701 0.1701 0.0000  plane waves:    8344
 k-point 26 :   0.1633 0.1633 0.0000  plane waves:    8350
 k-point 27 :   0.1565 0.1565 0.0000  plane waves:    8360
 k-point 28 :   0.1497 0.1497 0.0000  plane waves:    8362
 k-point 29 :   0.1429 0.1429 0.0000  plane waves:    8363
 k-point 30 :   0.1361 0.1361 0.0000  plane waves:    8371
 k-point 31 :   0.1293 0.1293 0.0000  plane waves:    8370
 k-point 32 :   0.1224 0.1224 0.0000  plane waves:    8372
 k-point 33 :   0.1156 0.1156 0.0000  plane waves:    8384
 k-point 34 :   0.1088 0.1088 0.0000  plane waves:    8380
 k-point 35 :   0.1020 0.1020 0.0000  plane waves:    8381
 k-point 36 :   0.0952 0.0952 0.0000  plane waves:    8381
 k-point 37 :   0.0884 0.0884 0.0000  plane waves:    8375
 k-point 38 :   0.0816 0.0816 0.0000  plane waves:    8379
 k-point 39 :   0.0748 0.0748 0.0000  plane waves:    8367
 k-point 40 :   0.0680 0.0680 0.0000  plane waves:    8371
 k-point 41 :   0.0612 0.0612 0.0000  plane waves:    8369
 k-point 42 :   0.0544 0.0544 0.0000  plane waves:    8371
 k-point 43 :   0.0476 0.0476 0.0000  plane waves:    8367
 k-point 44 :   0.0408 0.0408 0.0000  plane waves:    8364
 k-point 45 :   0.0340 0.0340 0.0000  plane waves:    8364
 k-point 46 :   0.0272 0.0272 0.0000  plane waves:    8346
 k-point 47 :   0.0204 0.0204 0.0000  plane waves:    8335
 k-point 48 :   0.0136 0.0136 0.0000  plane waves:    8340
 k-point 49 :   0.0068 0.0068 0.0000  plane waves:    8335
 k-point 50 :   0.0000 0.0000 0.0000  plane waves:    8335
 k-point 51 :   0.0000 0.0000 0.0000  plane waves:    8335
 k-point 52 :   0.0102 0.0000 0.0000  plane waves:    8334
 k-point 53 :   0.0204 0.0000 0.0000  plane waves:    8340
 k-point 54 :   0.0306 0.0000 0.0000  plane waves:    8341
 k-point 55 :   0.0408 0.0000 0.0000  plane waves:    8352
 k-point 56 :   0.0510 0.0000 0.0000  plane waves:    8344
 k-point 57 :   0.0612 0.0000 0.0000  plane waves:    8354
 k-point 58 :   0.0714 0.0000 0.0000  plane waves:    8352
 k-point 59 :   0.0816 0.0000 0.0000  plane waves:    8360
 k-point 60 :   0.0918 0.0000 0.0000  plane waves:    8368
[...]
 k-point 85 :   0.3469 0.0000 0.0000  plane waves:    8343
 k-point 86 :   0.3571 0.0000 0.0000  plane waves:    8340
 k-point 87 :   0.3673 0.0000 0.0000  plane waves:    8344
 k-point 88 :   0.3776 0.0000 0.0000  plane waves:    8335
 k-point 89 :   0.3878 0.0000 0.0000  plane waves:    8332
 k-point 90 :   0.3980 0.0000 0.0000  plane waves:    8334
 k-point 91 :   0.4082 0.0000 0.0000  plane waves:    8338
 k-point 92 :   0.4184 0.0000 0.0000  plane waves:    8331
 k-point 93 :   0.4286 0.0000 0.0000  plane waves:    8328
 k-point 94 :   0.4388 0.0000 0.0000  plane waves:    8328
 k-point 95 :   0.4490 0.0000 0.0000  plane waves:    8316
 k-point 96 :   0.4592 0.0000 0.0000  plane waves:    8309
 k-point 97 :   0.4694 0.0000 0.0000  plane waves:    8305
 k-point 98 :   0.4796 0.0000 0.0000  plane waves:    8306
 k-point 99 :   0.4898 0.0000 0.0000  plane waves:    8303
 k-point ** :   0.5000 0.0000 0.0000  plane waves:    8308
 k-point ** :   0.5000 0.0000 0.0000  plane waves:    8308
 k-point ** :   0.4966 0.0068 0.0000  plane waves:    8303
 k-point ** :   0.4932 0.0136 0.0000  plane waves:    8302
 k-point ** :   0.4898 0.0204 0.0000  plane waves:    8302
 k-point ** :   0.4864 0.0272 0.0000  plane waves:    8304
 k-point ** :   0.4830 0.0340 0.0000  plane waves:    8307
 k-point ** :   0.4796 0.0408 0.0000  plane waves:    8304
 k-point ** :   0.4762 0.0476 0.0000  plane waves:    8300
 k-point ** :   0.4728 0.0544 0.0000  plane waves:    8295
 k-point ** :   0.4694 0.0612 0.0000  plane waves:    8301
 k-point ** :   0.4660 0.0680 0.0000  plane waves:    8302
 k-point ** :   0.4626 0.0748 0.0000  plane waves:    8306
 k-point ** :   0.4592 0.0816 0.0000  plane waves:    8300
 k-point ** :   0.4558 0.0884 0.0000  plane waves:    8302
 k-point ** :   0.4524 0.0952 0.0000  plane waves:    8305
 k-point ** :   0.4490 0.1020 0.0000  plane waves:    8307
 k-point ** :   0.4456 0.1088 0.0000  plane waves:    8306
 k-point ** :   0.4422 0.1156 0.0000  plane waves:    8308
 k-point ** :   0.4388 0.1224 0.0000  plane waves:    8308
 k-point ** :   0.4354 0.1293 0.0000  plane waves:    8307
 k-point ** :   0.4320 0.1361 0.0000  plane waves:    8311
 k-point ** :   0.4286 0.1429 0.0000  plane waves:    8305
 k-point ** :   0.4252 0.1497 0.0000  plane waves:    8307
 k-point ** :   0.4218 0.1565 0.0000  plane waves:    8301
 k-point ** :   0.4184 0.1633 0.0000  plane waves:    8299
 k-point ** :   0.4150 0.1701 0.0000  plane waves:    8302
 k-point ** :   0.4116 0.1769 0.0000  plane waves:    8304
 k-point ** :   0.4082 0.1837 0.0000  plane waves:    8306
 k-point ** :   0.4048 0.1905 0.0000  plane waves:    8309
 k-point ** :   0.4014 0.1973 0.0000  plane waves:    8307
 k-point ** :   0.3980 0.2041 0.0000  plane waves:    8306
 k-point ** :   0.3946 0.2109 0.0000  plane waves:    8302
 k-point ** :   0.3912 0.2177 0.0000  plane waves:    8301
 k-point ** :   0.3878 0.2245 0.0000  plane waves:    8305
 k-point ** :   0.3844 0.2313 0.0000  plane waves:    8306
 k-point ** :   0.3810 0.2381 0.0000  plane waves:    8306
 k-point ** :   0.3776 0.2449 0.0000  plane waves:    8307
 k-point ** :   0.3741 0.2517 0.0000  plane waves:    8314
 k-point ** :   0.3707 0.2585 0.0000  plane waves:    8312
 k-point ** :   0.3673 0.2653 0.0000  plane waves:    8311
 k-point ** :   0.3639 0.2721 0.0000  plane waves:    8311
 k-point ** :   0.3605 0.2789 0.0000  plane waves:    8312
 k-point ** :   0.3571 0.2857 0.0000  plane waves:    8307
 k-point ** :   0.3537 0.2925 0.0000  plane waves:    8308
 k-point ** :   0.3503 0.2993 0.0000  plane waves:    8306
 k-point ** :   0.3469 0.3061 0.0000  plane waves:    8305
 k-point ** :   0.3435 0.3129 0.0000  plane waves:    8312
 k-point ** :   0.3401 0.3197 0.0000  plane waves:    8313
 k-point ** :   0.3367 0.3265 0.0000  plane waves:    8310
 k-point ** :   0.3333 0.3333 0.0000  plane waves:    8314

 maximum and minimum number of plane-waves per node :       950      901

 maximum number of plane-waves:      8389
 maximum index in each direction:
   IXMAX=    7   IYMAX=    7   IZMAX=   40
   IXMIN=   -8   IYMIN=   -7   IZMIN=  -40

 parallel 3D FFT for wavefunctions:
    minimum data exchange during FFTs selected (reduces bandwidth)
 parallel 3D FFT for charge:
    minimum data exchange during FFTs selected (reduces bandwidth)

 initial charge density was supplied:
 number of electron      16.0000000 magnetization
 keeping initial charge density in first step

 Maximum index for augmentation-charges         7820 (set IRDMAX)

 First call to EWALD:  gamma=   0.262
 Maximum number of real-space cells 5x 5x 1
 Maximum number of reciprocal cells 2x 2x 8

--------------------------------------- Iteration      1(   1)  ---------------------------------------

 eigenvalue-minimisations  :  4584
 total energy-change (2. order) :-0.1262655E+02  (-0.2824523E+02)
 number of electron      16.0000000 magnetization
 augmentation part       16.0000000 magnetization

 Free energy of the ion-electron system (eV)
  alpha Z        PSCENC =        11.04446628
  Ewald energy   TEWEN  =      1188.97358165
  -Hartree energ DENC   =     -1578.14313166
  -exchange      EXHF   =         0.00000000
  -V(xc)+E(xc)   XCENC  =       -61.28658666
  PAW double counting   =       252.39611607     -162.77902313
  entropy T*S    EENTRO =        -0.00161957
  eigenvalues    EBANDS =      -120.71744267
  atomic energy  EATOM  =       457.88708774
  Solvation  Ediel_sol  =         0.00000000
  free energy    TOTEN  =       -12.62655196 eV

  energy without entropy =      -12.62493239  energy(sigma->0) =      -12.62574218

[...]

--------------------------------------- Iteration      1(   8)  ---------------------------------------

 eigenvalue-minimisations  :  3660
 total energy-change (2. order) :-0.5647962E-09  (-0.6485295E-09)
 number of electron      16.0000000 magnetization
 augmentation part       16.0000000 magnetization

 Free energy of the ion-electron system (eV)
  alpha Z        PSCENC =        11.04446628
  Ewald energy   TEWEN  =      1188.97358165
  -Hartree energ DENC   =     -1578.14313166
  -exchange      EXHF   =         0.00000000
  -V(xc)+E(xc)   XCENC  =       -61.28658666
  PAW double counting   =       252.39611607     -162.77902313
  entropy T*S    EENTRO =        -0.00320489
  eigenvalues    EBANDS =      -122.80779937
  atomic energy  EATOM  =       457.88708774
  Solvation  Ediel_sol  =         0.00000000
  free energy    TOTEN  =       -14.71849398 eV

  energy without entropy =      -14.71528909  energy(sigma->0) =      -14.71689154

 average (electrostatic) potential at core
  the test charge radii are     1.2767  1.0621
  (the norm of the test charge is              1.0000)
       1 -20.2940       2 -20.2934       3 -56.9528       4 -56.9539

 E-fermi :  -2.7578     XC(G=0):  -3.2521     alpha+bet : -2.4996

 k-point     1 :       0.3333    0.3333    0.0000
  band No.  band energies     occupation
      1     -12.9528      2.00000
      2     -12.9520      2.00000
      3      -8.9924      2.00000
      4      -8.9918      2.00000
      5      -6.9342      2.00000
      6      -5.4722      2.00000
      7      -4.5549      2.00000
      8      -4.5546      2.00000
      9      -0.0062      0.00000
     10      -0.0060      0.00000
     11       0.5112      0.00000
     12       3.0828      0.00000

[...]

 k-point   150 :       0.3333    0.3333    0.0000
  band No.  band energies     occupation
      1     -12.9528      2.00000
      2     -12.9520      2.00000
      3      -8.9924      2.00000
      4      -8.9918      2.00000
      5      -6.9342      2.00000
      6      -5.4722      2.00000
      7      -4.5549      2.00000
      8      -4.5546      2.00000
      9      -0.0062      0.00000
     10      -0.0060      0.00000
     11       0.5112      0.00000
     12       3.0828      0.00000

 soft charge-density along one line, spin component           1
         0         1         2         3         4         5         6         7         8         9
 total charge-density along one line

------------------------ aborting loop because EDIFF is reached ----------------------------------------

 total charge

# of ion       s       p       d       tot
    1        1.091   1.059   0.136   2.286
    2        1.091   1.059   0.136   2.286
    3        1.258   1.491   0.026   2.775
    4        1.258   1.491   0.026   2.775
tot          4.699   5.099   0.324  10.121

  FORCE on cell =-STRESS in cart. coord.  units (eV):
  Direction    XX          YY          ZZ          XY          YZ          ZX
  Alpha Z    11.04447    11.04447    11.04447
  Ewald    1495.97991  1496.22745 -1803.23391     0.22377   -20.78726    35.25369
  Hartree  1550.29867  1549.56615 -1520.64073     0.94046   -19.44765    32.66977
  E(xc)     -59.10517   -59.48179   -58.82116     0.56209     0.04085     0.05318
  Local   -3213.69835 -3215.94444  3153.31798     4.19076    40.59282   -67.65057
  n-local    87.70224    89.20206    83.96422    -2.65369    -0.12824     0.06588
  augment     3.67938     3.51117     3.57151     0.27668     0.00104    -0.01797
  Kinetic   124.44438   129.82123   131.00189    -5.20543     0.15324     0.26700
  Fock        0.00000     0.00000     0.00000     0.00000     0.00000     0.00000
  Total       0.34553     3.94630     0.20428    -1.66535     0.42480     0.64098
  in kB       1.78781    20.41845     1.05697    -8.61668     2.19795     3.31648

 VOLUME and BASIS-vectors are now :
  energy-cutoff  :      520.00
  volume of cell :      309.65
      direct lattice vectors                 reciprocal lattice vectors
     4.051284713  0.000154209  0.043284580     0.246852137  0.142481774 -0.002085301
    -2.025507392  3.508586340 -0.043745526    -0.000033745  0.285022313  0.002142954
     0.278592806 -0.163783236 21.788273737    -0.000490464  0.000289201  0.045904693

  length of vectors
     4.051515939  4.051514776 21.790670282     0.285028739  0.285030371  0.045908224

 FORCES acting on ions
    electron-ion (+dipol)            ewald-force                    non-local-force                 convergence-correction
   -.236E+00 -.105E+01 -.669E+02   -.721E+00 0.425E+00 0.675E+02   0.546E+00 0.254E+00 -.834E+00   0.161E+00 0.131E+00 0.130E+00
   0.236E+00 0.105E+01 0.669E+02   0.721E+00 -.425E+00 -.675E+02   -.546E+00 -.255E+00 0.834E+00   -.161E+00 -.132E+00 -.146E+00
   -.413E+01 0.394E+00 0.226E+03   0.246E+01 -.145E+01 -.230E+03   0.930E+00 0.553E+00 0.411E+01   0.402E+00 0.247E+00 -.264E+00
   0.413E+01 -.394E+00 -.226E+03   -.246E+01 0.145E+01 0.230E+03   -.930E+00 -.553E+00 -.411E+01   -.401E+00 -.247E+00 0.244E+00
   -.760E-03 0.352E-03 0.384E-01   -.444E-15 -.400E-14 0.000E+00   0.234E-03 -.445E-04 -.201E-02   0.523E-03 -.299E-03 -.362E-01

 POSITION                                       TOTAL-FORCE (eV/Angst)
      0.02872      2.32118      4.62916        -0.250536     -0.241308     -0.072957
      2.07477      1.13965      2.75042         0.250445      0.241260      0.072339
      0.05854      2.30360      1.84272        -0.344470     -0.253164      0.001830
      2.04494      1.15723      5.53684         0.344561      0.253212     -0.001213
    total drift:                               -0.000003      0.000008      0.000144

  FREE ENERGIE OF THE ION-ELECTRON SYSTEM (eV)
  free  energy   TOTEN  =       -14.71849398 eV

  energy  without entropy=      -14.71528909  energy(sigma->0) =      -14.71689154

 writing wavefunctions

 total charge

# of ion       s       p       d       tot
    1        1.091   1.059   0.136   2.286
    2        1.091   1.059   0.136   2.286
    3        1.258   1.491   0.026   2.775
    4        1.258   1.491   0.026   2.775
tot          4.699   5.099   0.324  10.121